clingo version 5.5.2
Reading from ...nt/beegfs/home/jubruns/encoding/mif.lp ...
Solving...
Answer: 1
move(1,(19,21),(19,20),1) move(1,(19,20),(19,19),2) move(1,(19,19),(18,19),3) move(1,(18,19),(17,19),4) move(1,(17,19),(16,19),5) move(1,(16,19),(15,19),6) move(1,(15,19),(14,19),7) move(1,(14,19),(13,19),8) move(1,(13,19),(13,18),9) move(1,(13,18),(13,17),10) move(1,(13,17),(14,17),11) move(1,(14,17),(15,17),12) move(1,(15,17),(16,17),13) move(1,(16,17),(17,17),14) move(1,(17,17),(18,17),15) move(2,(3,9),(3,10),1) move(2,(3,10),(3,9),2) move(2,(3,9),(2,9),3) move(2,(2,9),(1,9),4) move(2,(1,9),(1,8),5) move(2,(1,8),(1,7),6) move(2,(1,7),(2,7),7) move(2,(2,7),(3,7),8) move(2,(3,7),(4,7),9) move(2,(4,7),(5,7),10) move(2,(5,7),(5,8),11) move(2,(5,8),(5,9),12)
SATISFIABLE

Models       : 1+
Calls        : 1
Time         : 0.547s (Solving: 0.03s 1st Model: 0.03s Unsat: 0.00s)
CPU Time     : 0.476s

Choices      : 767      (Domain: 1)
Conflicts    : 2        (Analyzed: 2)
Restarts     : 0       
Model-Level  : 353.0   
Problems     : 1        (Average Length: 0.00 Splits: 0)
Lemmas       : 32       (Deleted: 0)
  Binary     : 2        (Ratio:   6.25%)
  Ternary    : 2        (Ratio:   6.25%)
  Conflict   : 2        (Average Length:    6.5 Ratio:   6.25%) 
  Loop       : 30       (Average Length:   68.4 Ratio:  93.75%) 
  Other      : 0        (Average Length:    0.0 Ratio:   0.00%) 
Backjumps    : 2        (Average: 207.00 Max: 412 Sum:    414)
  Executed   : 2        (Average: 207.00 Max: 412 Sum:    414 Ratio: 100.00%)
  Bounded    : 0        (Average:  0.00 Max:   0 Sum:      0 Ratio:   0.00%)

Rules        : 186597   (Original: 212418)
  Choice     : 6032    
  Heuristic  : 28800    (Original: 91534)
Atoms        : 102337   (Original: 87940 Auxiliary: 14397)
Bodies       : 87860    (Original: 82413)
  Count      : 7        (Original: 5929)
Equivalences : 130847   (Atom=Atom: 9612 Body=Body: 8240 Other: 112995)
Tight        : No       (SCCs: 4 Non-Hcfs: 0 Nodes: 22939 Gammas: 0)
Variables    : 60738    (Eliminated:    0 Frozen: 14271)
Constraints  : 143124   (Binary:  74.5% Ternary:  23.6% Other:   1.9%)

